Route #1: 67 74 72 61 64 69
Route #2: 93 5 75 2 0 68 65 49 55 54 59 44 0 45 51 50 52 47 43 42 41 48
Route #3: 32 33 36 34 0 18 19 16 14 12 0 15 17 13 9
Route #4: 31 35 37 38 39 0 91 88 84 83 82 90
Route #5: 1 99 95 98 7 89 0 76 71 70 73 80 79 96
Route #6: 100 97 92 94 3 4 0 86 85 81 78 77
Route #7: 20 22 24 27 30 29 6 0 28 26 23 25 11 10 0 8 21
Route #8: 63 62 66 0 53 56 58 60 0 57 40 46 87
Cost: 15006
Optimal: True
